p cnf 200 1110
-101 -54 0
-101 34 0
-101 2 0
-101 -6 0
-101 89 0
-101 1 0
-101 -19 0
-101 80 0
-101 92 0
-101 31 0
101 54 -34 -2 6 -89 -1 19 -80 -92 -31 0
-102 41 0
-102 -77 0
-102 64 0
-102 20 0
-102 -100 0
-102 -99 0
-102 53 0
-102 -98 0
-102 42 0
-102 -24 0
102 -41 77 -64 -20 100 99 -53 98 -42 24 0
-103 -12 0
-103 65 0
-103 72 0
-103 -35 0
-103 -74 0
-103 40 0
-103 93 0
-103 42 0
-103 -31 0
-103 61 0
103 12 -65 -72 35 74 -40 -93 -42 31 -61 0
-104 -65 0
-104 74 0
-104 -91 0
-104 48 0
-104 -46 0
-104 -85 0
-104 -7 0
-104 60 0
-104 6 0
-104 -58 0
104 65 -74 91 -48 46 85 7 -60 -6 58 0
-105 -57 0
-105 -20 0
-105 18 0
-105 -71 0
-105 -67 0
-105 95 0
-105 -16 0
-105 34 0
-105 56 0
-105 45 0
105 57 20 -18 71 67 -95 16 -34 -56 -45 0
-106 65 0
-106 41 0
-106 79 0
-106 -23 0
-106 52 0
-106 -21 0
-106 -49 0
-106 58 0
-106 -93 0
-106 -2 0
106 -65 -41 -79 23 -52 21 49 -58 93 2 0
-107 34 0
-107 -15 0
-107 69 0
-107 100 0
-107 8 0
-107 7 0
-107 24 0
-107 -75 0
-107 10 0
-107 25 0
107 -34 15 -69 -100 -8 -7 -24 75 -10 -25 0
-108 -78 0
-108 -48 0
-108 -18 0
-108 -15 0
-108 9 0
-108 13 0
-108 91 0
-108 76 0
-108 -62 0
-108 88 0
108 78 48 18 15 -9 -13 -91 -76 62 -88 0
-109 -27 0
-109 32 0
-109 39 0
-109 -4 0
-109 86 0
-109 -6 0
-109 -33 0
-109 30 0
-109 -44 0
-109 -41 0
109 27 -32 -39 4 -86 6 33 -30 44 41 0
-110 15 0
-110 -65 0
-110 70 0
-110 -74 0
-110 8 0
-110 50 0
-110 -29 0
-110 56 0
-110 -57 0
-110 72 0
110 -15 65 -70 74 -8 -50 29 -56 57 -72 0
101 102 103 104 105 106 107 108 109 110 0
-111 41 0
-111 -32 0
-111 -7 0
-111 -81 0
-111 -100 0
-111 42 0
-111 -74 0
-111 63 0
-111 70 0
-111 18 0
111 -41 32 7 81 100 -42 74 -63 -70 -18 0
-112 -69 0
-112 -81 0
-112 18 0
-112 100 0
-112 49 0
-112 -85 0
-112 -38 0
-112 -78 0
-112 31 0
-112 45 0
112 69 81 -18 -100 -49 85 38 78 -31 -45 0
-113 -8 0
-113 -87 0
-113 85 0
-113 83 0
-113 -99 0
-113 -70 0
-113 -77 0
-113 56 0
-113 -15 0
-113 -71 0
113 8 87 -85 -83 99 70 77 -56 15 71 0
-114 -16 0
-114 -49 0
-114 -8 0
-114 -56 0
-114 44 0
-114 -1 0
-114 -2 0
-114 9 0
-114 78 0
-114 4 0
114 16 49 8 56 -44 1 2 -9 -78 -4 0
-115 79 0
-115 92 0
-115 69 0
-115 -78 0
-115 -83 0
-115 81 0
-115 20 0
-115 76 0
-115 -7 0
-115 -39 0
115 -79 -92 -69 78 83 -81 -20 -76 7 39 0
-116 35 0
-116 22 0
-116 90 0
-116 20 0
-116 -18 0
-116 -98 0
-116 95 0
-116 100 0
-116 -88 0
-116 -75 0
116 -35 -22 -90 -20 18 98 -95 -100 88 75 0
-117 -100 0
-117 82 0
-117 -69 0
-117 11 0
-117 87 0
-117 -58 0
-117 -63 0
-117 79 0
-117 -52 0
-117 53 0
117 100 -82 69 -11 -87 58 63 -79 52 -53 0
-118 -76 0
-118 79 0
-118 -9 0
-118 -55 0
-118 -22 0
-118 -3 0
-118 -84 0
-118 39 0
-118 -34 0
-118 86 0
118 76 -79 9 55 22 3 84 -39 34 -86 0
-119 48 0
-119 37 0
-119 65 0
-119 70 0
-119 68 0
-119 -63 0
-119 -93 0
-119 13 0
-119 42 0
-119 -4 0
119 -48 -37 -65 -70 -68 63 93 -13 -42 4 0
-120 -84 0
-120 33 0
-120 -9 0
-120 27 0
-120 3 0
-120 -97 0
-120 -6 0
-120 -16 0
-120 -60 0
-120 -29 0
120 84 -33 9 -27 -3 97 6 16 60 29 0
111 112 113 114 115 116 117 118 119 120 0
-121 65 0
-121 -45 0
-121 80 0
-121 -57 0
-121 21 0
-121 -98 0
-121 -5 0
-121 -93 0
-121 -99 0
-121 -13 0
121 -65 45 -80 57 -21 98 5 93 99 13 0
-122 72 0
-122 -89 0
-122 -93 0
-122 39 0
-122 -14 0
-122 -36 0
-122 -50 0
-122 -37 0
-122 -6 0
-122 -87 0
122 -72 89 93 -39 14 36 50 37 6 87 0
-123 -32 0
-123 -95 0
-123 -92 0
-123 -94 0
-123 26 0
-123 -1 0
-123 -31 0
-123 -97 0
-123 -15 0
-123 68 0
123 32 95 92 94 -26 1 31 97 15 -68 0
-124 -8 0
-124 -100 0
-124 60 0
-124 -5 0
-124 69 0
-124 -47 0
-124 77 0
-124 -58 0
-124 38 0
-124 82 0
124 8 100 -60 5 -69 47 -77 58 -38 -82 0
-125 -68 0
-125 -47 0
-125 -46 0
-125 -93 0
-125 -60 0
-125 -73 0
-125 -54 0
-125 92 0
-125 -87 0
-125 6 0
125 68 47 46 93 60 73 54 -92 87 -6 0
-126 97 0
-126 63 0
-126 -88 0
-126 74 0
-126 54 0
-126 -35 0
-126 49 0
-126 55 0
-126 69 0
-126 75 0
126 -97 -63 88 -74 -54 35 -49 -55 -69 -75 0
-127 -70 0
-127 26 0
-127 38 0
-127 35 0
-127 63 0
-127 -3 0
-127 -91 0
-127 64 0
-127 -89 0
-127 24 0
127 70 -26 -38 -35 -63 3 91 -64 89 -24 0
-128 -9 0
-128 -62 0
-128 -90 0
-128 -89 0
-128 -87 0
-128 -92 0
-128 -79 0
-128 -37 0
-128 1 0
-128 -94 0
128 9 62 90 89 87 92 79 37 -1 94 0
-129 -25 0
-129 60 0
-129 -38 0
-129 -74 0
-129 1 0
-129 -75 0
-129 -58 0
-129 -10 0
-129 -93 0
-129 -70 0
129 25 -60 38 74 -1 75 58 10 93 70 0
-130 -53 0
-130 52 0
-130 -97 0
-130 -44 0
-130 13 0
-130 -42 0
-130 31 0
-130 57 0
-130 87 0
-130 29 0
130 53 -52 97 44 -13 42 -31 -57 -87 -29 0
121 122 123 124 125 126 127 128 129 130 0
-131 68 0
-131 -100 0
-131 -74 0
-131 -94 0
-131 -61 0
-131 96 0
-131 85 0
-131 88 0
-131 -50 0
-131 -14 0
131 -68 100 74 94 61 -96 -85 -88 50 14 0
-132 22 0
-132 -2 0
-132 -88 0
-132 12 0
-132 -72 0
-132 -14 0
-132 7 0
-132 66 0
-132 -44 0
-132 -94 0
132 -22 2 88 -12 72 14 -7 -66 44 94 0
-133 77 0
-133 41 0
-133 96 0
-133 -16 0
-133 97 0
-133 -43 0
-133 -13 0
-133 23 0
-133 29 0
-133 31 0
133 -77 -41 -96 16 -97 43 13 -23 -29 -31 0
-134 -33 0
-134 -51 0
-134 -16 0
-134 37 0
-134 29 0
-134 36 0
-134 44 0
-134 76 0
-134 -3 0
-134 31 0
134 33 51 16 -37 -29 -36 -44 -76 3 -31 0
-135 89 0
-135 90 0
-135 -64 0
-135 -55 0
-135 43 0
-135 -67 0
-135 -11 0
-135 81 0
-135 4 0
-135 42 0
135 -89 -90 64 55 -43 67 11 -81 -4 -42 0
-136 -92 0
-136 48 0
-136 15 0
-136 -25 0
-136 21 0
-136 -74 0
-136 -37 0
-136 81 0
-136 -16 0
-136 24 0
136 92 -48 -15 25 -21 74 37 -81 16 -24 0
-137 31 0
-137 23 0
-137 70 0
-137 24 0
-137 25 0
-137 -32 0
-137 -1 0
-137 -94 0
-137 -36 0
-137 49 0
137 -31 -23 -70 -24 -25 32 1 94 36 -49 0
-138 -31 0
-138 -74 0
-138 -12 0
-138 91 0
-138 -64 0
-138 -96 0
-138 -55 0
-138 4 0
-138 -43 0
-138 -60 0
138 31 74 12 -91 64 96 55 -4 43 60 0
-139 32 0
-139 -79 0
-139 81 0
-139 -46 0
-139 41 0
-139 -71 0
-139 -80 0
-139 -50 0
-139 -4 0
-139 -88 0
139 -32 79 -81 46 -41 71 80 50 4 88 0
-140 -49 0
-140 -100 0
-140 -73 0
-140 -13 0
-140 -2 0
-140 97 0
-140 25 0
-140 71 0
-140 68 0
-140 7 0
140 49 100 73 13 2 -97 -25 -71 -68 -7 0
131 132 133 134 135 136 137 138 139 140 0
-141 81 0
-141 83 0
-141 -12 0
-141 40 0
-141 27 0
-141 -61 0
-141 13 0
-141 15 0
-141 72 0
-141 -57 0
141 -81 -83 12 -40 -27 61 -13 -15 -72 57 0
-142 -48 0
-142 79 0
-142 20 0
-142 58 0
-142 53 0
-142 -42 0
-142 71 0
-142 23 0
-142 -87 0
-142 -99 0
142 48 -79 -20 -58 -53 42 -71 -23 87 99 0
-143 31 0
-143 36 0
-143 70 0
-143 -18 0
-143 -72 0
-143 -75 0
-143 73 0
-143 -27 0
-143 -54 0
-143 65 0
143 -31 -36 -70 18 72 75 -73 27 54 -65 0
-144 16 0
-144 75 0
-144 22 0
-144 -70 0
-144 91 0
-144 -85 0
-144 36 0
-144 20 0
-144 -24 0
-144 -42 0
144 -16 -75 -22 70 -91 85 -36 -20 24 42 0
-145 -37 0
-145 52 0
-145 -21 0
-145 61 0
-145 -31 0
-145 -34 0
-145 27 0
-145 19 0
-145 68 0
-145 17 0
145 37 -52 21 -61 31 34 -27 -19 -68 -17 0
-146 -23 0
-146 -91 0
-146 22 0
-146 4 0
-146 13 0
-146 -51 0
-146 -17 0
-146 81 0
-146 -67 0
-146 68 0
146 23 91 -22 -4 -13 51 17 -81 67 -68 0
-147 -75 0
-147 -77 0
-147 2 0
-147 -70 0
-147 -46 0
-147 42 0
-147 36 0
-147 -73 0
-147 -61 0
-147 32 0
147 75 77 -2 70 46 -42 -36 73 61 -32 0
-148 -90 0
-148 -92 0
-148 -75 0
-148 -56 0
-148 -48 0
-148 -42 0
-148 -50 0
-148 47 0
-148 95 0
-148 23 0
148 90 92 75 56 48 42 50 -47 -95 -23 0
-149 41 0
-149 -79 0
-149 -54 0
-149 -11 0
-149 33 0
-149 72 0
-149 26 0
-149 -90 0
-149 -27 0
-149 44 0
149 -41 79 54 11 -33 -72 -26 90 27 -44 0
-150 39 0
-150 17 0
-150 32 0
-150 67 0
-150 -45 0
-150 -99 0
-150 7 0
-150 43 0
-150 -40 0
-150 -44 0
150 -39 -17 -32 -67 45 99 -7 -43 40 44 0
141 142 143 144 145 146 147 148 149 150 0
-151 33 0
-151 -11 0
-151 22 0
-151 -49 0
-151 -68 0
-151 89 0
-151 44 0
-151 17 0
-151 -43 0
-151 53 0
151 -33 11 -22 49 68 -89 -44 -17 43 -53 0
-152 96 0
-152 -4 0
-152 65 0
-152 -49 0
-152 50 0
-152 -30 0
-152 -9 0
-152 -85 0
-152 48 0
-152 55 0
152 -96 4 -65 49 -50 30 9 85 -48 -55 0
-153 98 0
-153 -84 0
-153 -24 0
-153 -58 0
-153 -97 0
-153 -66 0
-153 88 0
-153 81 0
-153 10 0
-153 60 0
153 -98 84 24 58 97 66 -88 -81 -10 -60 0
-154 76 0
-154 -30 0
-154 98 0
-154 -31 0
-154 56 0
-154 91 0
-154 10 0
-154 -69 0
-154 -95 0
-154 -34 0
154 -76 30 -98 31 -56 -91 -10 69 95 34 0
-155 58 0
-155 -22 0
-155 -68 0
-155 72 0
-155 -2 0
-155 -67 0
-155 96 0
-155 -42 0
-155 -16 0
-155 98 0
155 -58 22 68 -72 2 67 -96 42 16 -98 0
-156 -29 0
-156 -27 0
-156 19 0
-156 -31 0
-156 40 0
-156 47 0
-156 -98 0
-156 -80 0
-156 43 0
-156 -50 0
156 29 27 -19 31 -40 -47 98 80 -43 50 0
-157 90 0
-157 81 0
-157 96 0
-157 73 0
-157 -95 0
-157 -68 0
-157 -12 0
-157 -56 0
-157 -15 0
-157 23 0
157 -90 -81 -96 -73 95 68 12 56 15 -23 0
-158 4 0
-158 61 0
-158 -77 0
-158 72 0
-158 62 0
-158 -75 0
-158 -19 0
-158 -51 0
-158 88 0
-158 16 0
158 -4 -61 77 -72 -62 75 19 51 -88 -16 0
-159 -27 0
-159 99 0
-159 28 0
-159 -97 0
-159 -77 0
-159 -71 0
-159 -94 0
-159 6 0
-159 -59 0
-159 39 0
159 27 -99 -28 97 77 71 94 -6 59 -39 0
-160 -93 0
-160 71 0
-160 87 0
-160 40 0
-160 73 0
-160 47 0
-160 -72 0
-160 2 0
-160 58 0
-160 44 0
160 93 -71 -87 -40 -73 -47 72 -2 -58 -44 0
151 152 153 154 155 156 157 158 159 160 0
-161 98 0
-161 -88 0
-161 43 0
-161 5 0
-161 56 0
-161 -41 0
-161 -45 0
-161 -75 0
-161 -63 0
-161 71 0
161 -98 88 -43 -5 -56 41 45 75 63 -71 0
-162 45 0
-162 29 0
-162 -70 0
-162 -30 0
-162 74 0
-162 26 0
-162 80 0
-162 -57 0
-162 -36 0
-162 -60 0
162 -45 -29 70 30 -74 -26 -80 57 36 60 0
-163 -85 0
-163 -43 0
-163 -94 0
-163 56 0
-163 67 0
-163 19 0
-163 -5 0
-163 53 0
-163 -86 0
-163 -84 0
163 85 43 94 -56 -67 -19 5 -53 86 84 0
-164 6 0
-164 -1 0
-164 13 0
-164 -57 0
-164 35 0
-164 -94 0
-164 -76 0
-164 -78 0
-164 93 0
-164 54 0
164 -6 1 -13 57 -35 94 76 78 -93 -54 0
-165 -56 0
-165 40 0
-165 39 0
-165 -83 0
-165 20 0
-165 -16 0
-165 -33 0
-165 -7 0
-165 -67 0
-165 -84 0
165 56 -40 -39 83 -20 16 33 7 67 84 0
-166 -54 0
-166 24 0
-166 79 0
-166 76 0
-166 14 0
-166 -72 0
-166 -75 0
-166 46 0
-166 11 0
-166 -62 0
166 54 -24 -79 -76 -14 72 75 -46 -11 62 0
-167 -9 0
-167 -91 0
-167 -52 0
-167 27 0
-167 -1 0
-167 -87 0
-167 -5 0
-167 -58 0
-167 -7 0
-167 79 0
167 9 91 52 -27 1 87 5 58 7 -79 0
-168 -24 0
-168 72 0
-168 1 0
-168 -30 0
-168 -39 0
-168 -51 0
-168 14 0
-168 -23 0
-168 91 0
-168 6 0
168 24 -72 -1 30 39 51 -14 23 -91 -6 0
-169 -39 0
-169 -53 0
-169 -21 0
-169 -23 0
-169 -61 0
-169 67 0
-169 92 0
-169 -16 0
-169 12 0
-169 43 0
169 39 53 21 23 61 -67 -92 16 -12 -43 0
-170 -72 0
-170 18 0
-170 13 0
-170 -62 0
-170 -20 0
-170 56 0
-170 65 0
-170 26 0
-170 33 0
-170 -29 0
170 72 -18 -13 62 20 -56 -65 -26 -33 29 0
161 162 163 164 165 166 167 168 169 170 0
-171 26 0
-171 -99 0
-171 -86 0
-171 -37 0
-171 -88 0
-171 30 0
-171 -42 0
-171 -80 0
-171 -46 0
-171 -43 0
171 -26 99 86 37 88 -30 42 80 46 43 0
-172 69 0
-172 12 0
-172 42 0
-172 60 0
-172 30 0
-172 93 0
-172 100 0
-172 74 0
-172 -72 0
-172 56 0
172 -69 -12 -42 -60 -30 -93 -100 -74 72 -56 0
-173 -37 0
-173 -46 0
-173 51 0
-173 57 0
-173 73 0
-173 -17 0
-173 28 0
-173 -27 0
-173 -41 0
-173 -63 0
173 37 46 -51 -57 -73 17 -28 27 41 63 0
-174 56 0
-174 -39 0
-174 92 0
-174 31 0
-174 49 0
-174 5 0
-174 62 0
-174 -45 0
-174 -20 0
-174 -69 0
174 -56 39 -92 -31 -49 -5 -62 45 20 69 0
-175 -68 0
-175 -82 0
-175 35 0
-175 14 0
-175 -32 0
-175 -91 0
-175 8 0
-175 -54 0
-175 -43 0
-175 -34 0
175 68 82 -35 -14 32 91 -8 54 43 34 0
-176 64 0
-176 -96 0
-176 -37 0
-176 82 0
-176 56 0
-176 -36 0
-176 -62 0
-176 38 0
-176 19 0
-176 -33 0
176 -64 96 37 -82 -56 36 62 -38 -19 33 0
-177 -57 0
-177 67 0
-177 22 0
-177 90 0
-177 -99 0
-177 17 0
-177 -45 0
-177 64 0
-177 19 0
-177 25 0
177 57 -67 -22 -90 99 -17 45 -64 -19 -25 0
-178 -36 0
-178 -53 0
-178 -21 0
-178 70 0
-178 59 0
-178 -68 0
-178 -94 0
-178 87 0
-178 -57 0
-178 -42 0
178 36 53 21 -70 -59 68 94 -87 57 42 0
-179 -17 0
-179 -22 0
-179 -25 0
-179 -54 0
-179 -65 0
-179 -75 0
-179 44 0
-179 81 0
-179 56 0
-179 -1 0
179 17 22 25 54 65 75 -44 -81 -56 1 0
-180 -56 0
-180 -27 0
-180 -4 0
-180 -31 0
-180 53 0
-180 87 0
-180 -94 0
-180 12 0
-180 -80 0
-180 22 0
180 56 27 4 31 -53 -87 94 -12 80 -22 0
171 172 173 174 175 176 177 178 179 180 0
-181 57 0
-181 -51 0
-181 -47 0
-181 58 0
-181 -46 0
-181 19 0
-181 40 0
-181 -68 0
-181 16 0
-181 69 0
181 -57 51 47 -58 46 -19 -40 68 -16 -69 0
-182 -88 0
-182 -22 0
-182 12 0
-182 -92 0
-182 73 0
-182 8 0
-182 6 0
-182 -83 0
-182 -81 0
-182 26 0
182 88 22 -12 92 -73 -8 -6 83 81 -26 0
-183 -71 0
-183 57 0
-183 18 0
-183 -56 0
-183 -44 0
-183 17 0
-183 -4 0
-183 -73 0
-183 -25 0
-183 11 0
183 71 -57 -18 56 44 -17 4 73 25 -11 0
-184 -15 0
-184 82 0
-184 -34 0
-184 40 0
-184 -33 0
-184 68 0
-184 -76 0
-184 2 0
-184 75 0
-184 58 0
184 15 -82 34 -40 33 -68 76 -2 -75 -58 0
-185 32 0
-185 53 0
-185 61 0
-185 -3 0
-185 -22 0
-185 -14 0
-185 49 0
-185 93 0
-185 11 0
-185 35 0
185 -32 -53 -61 3 22 14 -49 -93 -11 -35 0
-186 -64 0
-186 -51 0
-186 -48 0
-186 88 0
-186 81 0
-186 74 0
-186 96 0
-186 -100 0
-186 31 0
-186 5 0
186 64 51 48 -88 -81 -74 -96 100 -31 -5 0
-187 -97 0
-187 -93 0
-187 90 0
-187 49 0
-187 7 0
-187 31 0
-187 -30 0
-187 -41 0
-187 -78 0
-187 29 0
187 97 93 -90 -49 -7 -31 30 41 78 -29 0
-188 -1 0
-188 -2 0
-188 80 0
-188 34 0
-188 -61 0
-188 59 0
-188 41 0
-188 -57 0
-188 -96 0
-188 -21 0
188 1 2 -80 -34 61 -59 -41 57 96 21 0
-189 -64 0
-189 80 0
-189 42 0
-189 20 0
-189 -24 0
-189 -60 0
-189 -45 0
-189 36 0
-189 -72 0
-189 95 0
189 64 -80 -42 -20 24 60 45 -36 72 -95 0
-190 -80 0
-190 88 0
-190 81 0
-190 41 0
-190 35 0
-190 54 0
-190 -44 0
-190 -51 0
-190 92 0
-190 17 0
190 80 -88 -81 -41 -35 -54 44 51 -92 -17 0
181 182 183 184 185 186 187 188 189 190 0
-191 -55 0
-191 20 0
-191 -82 0
-191 -72 0
-191 36 0
-191 18 0
-191 57 0
-191 -11 0
-191 59 0
-191 24 0
191 55 -20 82 72 -36 -18 -57 11 -59 -24 0
-192 15 0
-192 13 0
-192 91 0
-192 -90 0
-192 6 0
-192 -33 0
-192 14 0
-192 -38 0
-192 -67 0
-192 21 0
192 -15 -13 -91 90 -6 33 -14 38 67 -21 0
-193 42 0
-193 60 0
-193 37 0
-193 25 0
-193 78 0
-193 -15 0
-193 -99 0
-193 -38 0
-193 -81 0
-193 -14 0
193 -42 -60 -37 -25 -78 15 99 38 81 14 0
-194 -22 0
-194 8 0
-194 -45 0
-194 -67 0
-194 40 0
-194 -77 0
-194 96 0
-194 -43 0
-194 90 0
-194 69 0
194 22 -8 45 67 -40 77 -96 43 -90 -69 0
-195 -55 0
-195 47 0
-195 50 0
-195 -100 0
-195 85 0
-195 48 0
-195 -77 0
-195 -13 0
-195 -80 0
-195 15 0
195 55 -47 -50 100 -85 -48 77 13 80 -15 0
-196 -18 0
-196 -6 0
-196 -100 0
-196 -98 0
-196 36 0
-196 17 0
-196 -29 0
-196 -85 0
-196 -48 0
-196 -76 0
196 18 6 100 98 -36 -17 29 85 48 76 0
-197 53 0
-197 52 0
-197 -79 0
-197 37 0
-197 55 0
-197 11 0
-197 -68 0
-197 94 0
-197 45 0
-197 -65 0
197 -53 -52 79 -37 -55 -11 68 -94 -45 65 0
-198 -88 0
-198 46 0
-198 -70 0
-198 -99 0
-198 12 0
-198 66 0
-198 60 0
-198 -95 0
-198 30 0
-198 92 0
198 88 -46 70 99 -12 -66 -60 95 -30 -92 0
-199 86 0
-199 -38 0
-199 63 0
-199 87 0
-199 83 0
-199 44 0
-199 -85 0
-199 43 0
-199 -5 0
-199 -20 0
199 -86 38 -63 -87 -83 -44 85 -43 5 20 0
-200 46 0
-200 -69 0
-200 -38 0
-200 -8 0
-200 -95 0
-200 89 0
-200 -57 0
-200 -32 0
-200 54 0
-200 82 0
200 -46 69 38 8 95 -89 57 32 -54 -82 0
191 192 193 194 195 196 197 198 199 200 0
